; benchmark generated from python API
(set-info :status unknown)
(declare-fun cell_1_4 () Int)
(declare-fun cell_2_1 () Int)
(declare-fun cell_3_7 () Int)
(declare-fun cell_4_6 () Int)
(declare-fun cell_5_9 () Int)
(declare-fun cell_6_2 () Int)
(declare-fun cell_7_5 () Int)
(declare-fun cell_8_8 () Int)
(declare-fun cell_9_3 () Int)
(declare-fun cell_1_1 () Int)
(declare-fun cell_3_1 () Int)
(declare-fun cell_4_1 () Int)
(declare-fun cell_5_1 () Int)
(declare-fun cell_6_1 () Int)
(declare-fun cell_7_1 () Int)
(declare-fun cell_8_1 () Int)
(declare-fun cell_9_1 () Int)
(declare-fun cell_1_2 () Int)
(declare-fun cell_2_2 () Int)
(declare-fun cell_3_2 () Int)
(declare-fun cell_4_2 () Int)
(declare-fun cell_5_2 () Int)
(declare-fun cell_7_2 () Int)
(declare-fun cell_8_2 () Int)
(declare-fun cell_9_2 () Int)
(declare-fun cell_1_3 () Int)
(declare-fun cell_2_3 () Int)
(declare-fun cell_3_3 () Int)
(declare-fun cell_4_3 () Int)
(declare-fun cell_5_3 () Int)
(declare-fun cell_6_3 () Int)
(declare-fun cell_7_3 () Int)
(declare-fun cell_8_3 () Int)
(declare-fun cell_2_4 () Int)
(declare-fun cell_3_4 () Int)
(declare-fun cell_4_4 () Int)
(declare-fun cell_5_4 () Int)
(declare-fun cell_6_4 () Int)
(declare-fun cell_7_4 () Int)
(declare-fun cell_8_4 () Int)
(declare-fun cell_9_4 () Int)
(declare-fun cell_1_5 () Int)
(declare-fun cell_2_5 () Int)
(declare-fun cell_3_5 () Int)
(declare-fun cell_4_5 () Int)
(declare-fun cell_5_5 () Int)
(declare-fun cell_6_5 () Int)
(declare-fun cell_8_5 () Int)
(declare-fun cell_9_5 () Int)
(declare-fun cell_1_6 () Int)
(declare-fun cell_2_6 () Int)
(declare-fun cell_3_6 () Int)
(declare-fun cell_5_6 () Int)
(declare-fun cell_6_6 () Int)
(declare-fun cell_7_6 () Int)
(declare-fun cell_8_6 () Int)
(declare-fun cell_9_6 () Int)
(declare-fun cell_1_7 () Int)
(declare-fun cell_2_7 () Int)
(declare-fun cell_4_7 () Int)
(declare-fun cell_5_7 () Int)
(declare-fun cell_6_7 () Int)
(declare-fun cell_7_7 () Int)
(declare-fun cell_8_7 () Int)
(declare-fun cell_9_7 () Int)
(declare-fun cell_1_8 () Int)
(declare-fun cell_2_8 () Int)
(declare-fun cell_3_8 () Int)
(declare-fun cell_4_8 () Int)
(declare-fun cell_5_8 () Int)
(declare-fun cell_6_8 () Int)
(declare-fun cell_7_8 () Int)
(declare-fun cell_9_8 () Int)
(declare-fun cell_1_9 () Int)
(declare-fun cell_2_9 () Int)
(declare-fun cell_3_9 () Int)
(declare-fun cell_4_9 () Int)
(declare-fun cell_6_9 () Int)
(declare-fun cell_7_9 () Int)
(declare-fun cell_8_9 () Int)
(declare-fun cell_9_9 () Int)
(assert
 (= cell_1_4 1))
(assert
 (= cell_2_1 1))
(assert
 (= cell_3_7 1))
(assert
 (= cell_4_6 1))
(assert
 (= cell_5_9 1))
(assert
 (= cell_6_2 1))
(assert
 (= cell_7_5 1))
(assert
 (= cell_8_8 1))
(assert
 (= cell_9_3 1))
(assert
 (let (($x1215 (= cell_1_1 9)))
 (let (($x6345 (= cell_1_1 8)))
 (let (($x7320 (= cell_1_1 7)))
 (let (($x8456 (= cell_1_1 6)))
 (let (($x5657 (= cell_1_1 5)))
 (let (($x838 (= cell_1_1 4)))
 (let (($x5421 (= cell_1_1 3)))
 (let (($x9243 (= cell_1_1 2)))
 (let (($x3509 (= cell_1_1 1)))
 (or $x3509 $x9243 $x5421 $x838 $x5657 $x8456 $x7320 $x6345 $x1215)))))))))))
(assert
 (let (($x9304 (= cell_2_1 1)))
 (or $x9304 (= cell_2_1 2) (= cell_2_1 3) (= cell_2_1 4) (= cell_2_1 5) (= cell_2_1 6) (= cell_2_1 7) (= cell_2_1 8) (= cell_2_1 9))))
(assert
 (let (($x3204 (= cell_3_1 9)))
 (let (($x253 (= cell_3_1 8)))
 (let (($x6249 (= cell_3_1 7)))
 (let (($x4310 (= cell_3_1 6)))
 (let (($x4252 (= cell_3_1 5)))
 (let (($x1549 (= cell_3_1 4)))
 (let (($x410 (= cell_3_1 3)))
 (let (($x2156 (= cell_3_1 2)))
 (let (($x2364 (= cell_3_1 1)))
 (or $x2364 $x2156 $x410 $x1549 $x4252 $x4310 $x6249 $x253 $x3204)))))))))))
(assert
 (let (($x2613 (= cell_4_1 9)))
 (let (($x1076 (= cell_4_1 8)))
 (let (($x9587 (= cell_4_1 7)))
 (let (($x5296 (= cell_4_1 6)))
 (let (($x8117 (= cell_4_1 5)))
 (let (($x3770 (= cell_4_1 4)))
 (let (($x3571 (= cell_4_1 3)))
 (let (($x4939 (= cell_4_1 2)))
 (let (($x4999 (= cell_4_1 1)))
 (or $x4999 $x4939 $x3571 $x3770 $x8117 $x5296 $x9587 $x1076 $x2613)))))))))))
(assert
 (let (($x5629 (= cell_5_1 9)))
 (let (($x1363 (= cell_5_1 8)))
 (let (($x5095 (= cell_5_1 7)))
 (let (($x1827 (= cell_5_1 6)))
 (let (($x6366 (= cell_5_1 5)))
 (let (($x1240 (= cell_5_1 4)))
 (let (($x4726 (= cell_5_1 3)))
 (let (($x6336 (= cell_5_1 2)))
 (let (($x8212 (= cell_5_1 1)))
 (or $x8212 $x6336 $x4726 $x1240 $x6366 $x1827 $x5095 $x1363 $x5629)))))))))))
(assert
 (let (($x2764 (= cell_6_1 9)))
 (let (($x4805 (= cell_6_1 8)))
 (let (($x10135 (= cell_6_1 7)))
 (let (($x5811 (= cell_6_1 6)))
 (let (($x8467 (= cell_6_1 5)))
 (let (($x1796 (= cell_6_1 4)))
 (let (($x2774 (= cell_6_1 3)))
 (let (($x6739 (= cell_6_1 2)))
 (let (($x1986 (= cell_6_1 1)))
 (or $x1986 $x6739 $x2774 $x1796 $x8467 $x5811 $x10135 $x4805 $x2764)))))))))))
(assert
 (let (($x3665 (= cell_7_1 9)))
 (let (($x6940 (= cell_7_1 8)))
 (let (($x5943 (= cell_7_1 7)))
 (let (($x9468 (= cell_7_1 6)))
 (let (($x5415 (= cell_7_1 5)))
 (let (($x3610 (= cell_7_1 4)))
 (let (($x7344 (= cell_7_1 3)))
 (let (($x6041 (= cell_7_1 2)))
 (let (($x4695 (= cell_7_1 1)))
 (or $x4695 $x6041 $x7344 $x3610 $x5415 $x9468 $x5943 $x6940 $x3665)))))))))))
(assert
 (let (($x5496 (= cell_8_1 9)))
 (let (($x898 (= cell_8_1 8)))
 (let (($x6974 (= cell_8_1 7)))
 (let (($x9395 (= cell_8_1 6)))
 (let (($x2928 (= cell_8_1 5)))
 (let (($x10200 (= cell_8_1 4)))
 (let (($x10034 (= cell_8_1 3)))
 (let (($x7971 (= cell_8_1 2)))
 (let (($x1540 (= cell_8_1 1)))
 (or $x1540 $x7971 $x10034 $x10200 $x2928 $x9395 $x6974 $x898 $x5496)))))))))))
(assert
 (let (($x2492 (= cell_9_1 9)))
 (let (($x5313 (= cell_9_1 8)))
 (let (($x656 (= cell_9_1 7)))
 (let (($x3764 (= cell_9_1 6)))
 (let (($x8306 (= cell_9_1 5)))
 (let (($x7567 (= cell_9_1 4)))
 (let (($x1223 (= cell_9_1 3)))
 (let (($x9472 (= cell_9_1 2)))
 (let (($x1635 (= cell_9_1 1)))
 (or $x1635 $x9472 $x1223 $x7567 $x8306 $x3764 $x656 $x5313 $x2492)))))))))))
(assert
 (let (($x8023 (= cell_1_2 9)))
 (let (($x2355 (= cell_1_2 8)))
 (let (($x3165 (= cell_1_2 7)))
 (let (($x5831 (= cell_1_2 6)))
 (let (($x5189 (= cell_1_2 5)))
 (let (($x5073 (= cell_1_2 4)))
 (let (($x4713 (= cell_1_2 3)))
 (let (($x9679 (= cell_1_2 2)))
 (let (($x7257 (= cell_1_2 1)))
 (or $x7257 $x9679 $x4713 $x5073 $x5189 $x5831 $x3165 $x2355 $x8023)))))))))))
(assert
 (let (($x4743 (= cell_2_2 9)))
 (let (($x9120 (= cell_2_2 8)))
 (let (($x830 (= cell_2_2 7)))
 (let (($x2424 (= cell_2_2 6)))
 (let (($x5543 (= cell_2_2 5)))
 (let (($x5515 (= cell_2_2 4)))
 (let (($x3585 (= cell_2_2 3)))
 (let (($x2448 (= cell_2_2 2)))
 (let (($x3993 (= cell_2_2 1)))
 (or $x3993 $x2448 $x3585 $x5515 $x5543 $x2424 $x830 $x9120 $x4743)))))))))))
(assert
 (let (($x1308 (= cell_3_2 9)))
 (let (($x6928 (= cell_3_2 8)))
 (let (($x7075 (= cell_3_2 7)))
 (let (($x8848 (= cell_3_2 6)))
 (let (($x6388 (= cell_3_2 5)))
 (let (($x6830 (= cell_3_2 4)))
 (let (($x1826 (= cell_3_2 3)))
 (let (($x308 (= cell_3_2 2)))
 (let (($x3907 (= cell_3_2 1)))
 (or $x3907 $x308 $x1826 $x6830 $x6388 $x8848 $x7075 $x6928 $x1308)))))))))))
(assert
 (let (($x4799 (= cell_4_2 9)))
 (let (($x6142 (= cell_4_2 8)))
 (let (($x2282 (= cell_4_2 7)))
 (let (($x2057 (= cell_4_2 6)))
 (let (($x3909 (= cell_4_2 5)))
 (let (($x6112 (= cell_4_2 4)))
 (let (($x8767 (= cell_4_2 3)))
 (let (($x3157 (= cell_4_2 2)))
 (let (($x7771 (= cell_4_2 1)))
 (or $x7771 $x3157 $x8767 $x6112 $x3909 $x2057 $x2282 $x6142 $x4799)))))))))))
(assert
 (let (($x2067 (= cell_5_2 9)))
 (let (($x1629 (= cell_5_2 8)))
 (let (($x3673 (= cell_5_2 7)))
 (let (($x8671 (= cell_5_2 6)))
 (let (($x8313 (= cell_5_2 5)))
 (let (($x8037 (= cell_5_2 4)))
 (let (($x2804 (= cell_5_2 3)))
 (let (($x57 (= cell_5_2 2)))
 (let (($x9656 (= cell_5_2 1)))
 (or $x9656 $x57 $x2804 $x8037 $x8313 $x8671 $x3673 $x1629 $x2067)))))))))))
(assert
 (let (($x1052 (= cell_6_2 1)))
 (or $x1052 (= cell_6_2 2) (= cell_6_2 3) (= cell_6_2 4) (= cell_6_2 5) (= cell_6_2 6) (= cell_6_2 7) (= cell_6_2 8) (= cell_6_2 9))))
(assert
 (let (($x4878 (= cell_7_2 9)))
 (let (($x10074 (= cell_7_2 8)))
 (let (($x1630 (= cell_7_2 7)))
 (let (($x6935 (= cell_7_2 6)))
 (let (($x7095 (= cell_7_2 5)))
 (let (($x2449 (= cell_7_2 4)))
 (let (($x9732 (= cell_7_2 3)))
 (let (($x3516 (= cell_7_2 2)))
 (let (($x7546 (= cell_7_2 1)))
 (or $x7546 $x3516 $x9732 $x2449 $x7095 $x6935 $x1630 $x10074 $x4878)))))))))))
(assert
 (let (($x9447 (= cell_8_2 9)))
 (let (($x1733 (= cell_8_2 8)))
 (let (($x7597 (= cell_8_2 7)))
 (let (($x1931 (= cell_8_2 6)))
 (let (($x7481 (= cell_8_2 5)))
 (let (($x8210 (= cell_8_2 4)))
 (let (($x5748 (= cell_8_2 3)))
 (let (($x623 (= cell_8_2 2)))
 (let (($x9010 (= cell_8_2 1)))
 (or $x9010 $x623 $x5748 $x8210 $x7481 $x1931 $x7597 $x1733 $x9447)))))))))))
(assert
 (let (($x3510 (= cell_9_2 9)))
 (let (($x5396 (= cell_9_2 8)))
 (let (($x7980 (= cell_9_2 7)))
 (let (($x2982 (= cell_9_2 6)))
 (let (($x6222 (= cell_9_2 5)))
 (let (($x6657 (= cell_9_2 4)))
 (let (($x6581 (= cell_9_2 3)))
 (let (($x2691 (= cell_9_2 2)))
 (let (($x6924 (= cell_9_2 1)))
 (or $x6924 $x2691 $x6581 $x6657 $x6222 $x2982 $x7980 $x5396 $x3510)))))))))))
(assert
 (let (($x2397 (= cell_1_3 9)))
 (let (($x7659 (= cell_1_3 8)))
 (let (($x4888 (= cell_1_3 7)))
 (let (($x7367 (= cell_1_3 6)))
 (let (($x4068 (= cell_1_3 5)))
 (let (($x2849 (= cell_1_3 4)))
 (let (($x5157 (= cell_1_3 3)))
 (let (($x3785 (= cell_1_3 2)))
 (let (($x2850 (= cell_1_3 1)))
 (or $x2850 $x3785 $x5157 $x2849 $x4068 $x7367 $x4888 $x7659 $x2397)))))))))))
(assert
 (let (($x10093 (= cell_2_3 9)))
 (let (($x2421 (= cell_2_3 8)))
 (let (($x732 (= cell_2_3 7)))
 (let (($x4366 (= cell_2_3 6)))
 (let (($x2765 (= cell_2_3 5)))
 (let (($x1544 (= cell_2_3 4)))
 (let (($x6462 (= cell_2_3 3)))
 (let (($x4375 (= cell_2_3 2)))
 (let (($x3861 (= cell_2_3 1)))
 (or $x3861 $x4375 $x6462 $x1544 $x2765 $x4366 $x732 $x2421 $x10093)))))))))))
(assert
 (let (($x2738 (= cell_3_3 9)))
 (let (($x685 (= cell_3_3 8)))
 (let (($x9733 (= cell_3_3 7)))
 (let (($x6238 (= cell_3_3 6)))
 (let (($x9101 (= cell_3_3 5)))
 (let (($x7319 (= cell_3_3 4)))
 (let (($x1776 (= cell_3_3 3)))
 (let (($x1851 (= cell_3_3 2)))
 (let (($x481 (= cell_3_3 1)))
 (or $x481 $x1851 $x1776 $x7319 $x9101 $x6238 $x9733 $x685 $x2738)))))))))))
(assert
 (let (($x5638 (= cell_4_3 9)))
 (let (($x4029 (= cell_4_3 8)))
 (let (($x4436 (= cell_4_3 7)))
 (let (($x4942 (= cell_4_3 6)))
 (let (($x6987 (= cell_4_3 5)))
 (let (($x7271 (= cell_4_3 4)))
 (let (($x3047 (= cell_4_3 3)))
 (let (($x7252 (= cell_4_3 2)))
 (let (($x4591 (= cell_4_3 1)))
 (or $x4591 $x7252 $x3047 $x7271 $x6987 $x4942 $x4436 $x4029 $x5638)))))))))))
(assert
 (let (($x1128 (= cell_5_3 9)))
 (let (($x1877 (= cell_5_3 8)))
 (let (($x3311 (= cell_5_3 7)))
 (let (($x1751 (= cell_5_3 6)))
 (let (($x8996 (= cell_5_3 5)))
 (let (($x4116 (= cell_5_3 4)))
 (let (($x6750 (= cell_5_3 3)))
 (let (($x9245 (= cell_5_3 2)))
 (let (($x6452 (= cell_5_3 1)))
 (or $x6452 $x9245 $x6750 $x4116 $x8996 $x1751 $x3311 $x1877 $x1128)))))))))))
(assert
 (let (($x5347 (= cell_6_3 9)))
 (let (($x10189 (= cell_6_3 8)))
 (let (($x342 (= cell_6_3 7)))
 (let (($x8299 (= cell_6_3 6)))
 (let (($x1791 (= cell_6_3 5)))
 (let (($x4120 (= cell_6_3 4)))
 (let (($x5671 (= cell_6_3 3)))
 (let (($x8501 (= cell_6_3 2)))
 (let (($x2549 (= cell_6_3 1)))
 (or $x2549 $x8501 $x5671 $x4120 $x1791 $x8299 $x342 $x10189 $x5347)))))))))))
(assert
 (let (($x1028 (= cell_7_3 9)))
 (let (($x9241 (= cell_7_3 8)))
 (let (($x7564 (= cell_7_3 7)))
 (let (($x3404 (= cell_7_3 6)))
 (let (($x2185 (= cell_7_3 5)))
 (let (($x3971 (= cell_7_3 4)))
 (let (($x1935 (= cell_7_3 3)))
 (let (($x283 (= cell_7_3 2)))
 (let (($x4339 (= cell_7_3 1)))
 (or $x4339 $x283 $x1935 $x3971 $x2185 $x3404 $x7564 $x9241 $x1028)))))))))))
(assert
 (let (($x5973 (= cell_8_3 9)))
 (let (($x933 (= cell_8_3 8)))
 (let (($x6577 (= cell_8_3 7)))
 (let (($x609 (= cell_8_3 6)))
 (let (($x4227 (= cell_8_3 5)))
 (let (($x2462 (= cell_8_3 4)))
 (let (($x3317 (= cell_8_3 3)))
 (let (($x6122 (= cell_8_3 2)))
 (let (($x366 (= cell_8_3 1)))
 (or $x366 $x6122 $x3317 $x2462 $x4227 $x609 $x6577 $x933 $x5973)))))))))))
(assert
 (let (($x3936 (= cell_9_3 1)))
 (or $x3936 (= cell_9_3 2) (= cell_9_3 3) (= cell_9_3 4) (= cell_9_3 5) (= cell_9_3 6) (= cell_9_3 7) (= cell_9_3 8) (= cell_9_3 9))))
(assert
 (let (($x8189 (= cell_1_4 1)))
 (or $x8189 (= cell_1_4 2) (= cell_1_4 3) (= cell_1_4 4) (= cell_1_4 5) (= cell_1_4 6) (= cell_1_4 7) (= cell_1_4 8) (= cell_1_4 9))))
(assert
 (let (($x10211 (= cell_2_4 1)))
 (or $x10211 (= cell_2_4 2) (= cell_2_4 3) (= cell_2_4 4) (= cell_2_4 5) (= cell_2_4 6) (= cell_2_4 7) (= cell_2_4 8) (= cell_2_4 9))))
(assert
 (let (($x4386 (= cell_3_4 9)))
 (let (($x1005 (= cell_3_4 8)))
 (let (($x9576 (= cell_3_4 7)))
 (let (($x669 (= cell_3_4 6)))
 (let (($x5124 (= cell_3_4 5)))
 (let (($x189 (= cell_3_4 4)))
 (let (($x9569 (= cell_3_4 3)))
 (let (($x6973 (= cell_3_4 2)))
 (let (($x7479 (= cell_3_4 1)))
 (or $x7479 $x6973 $x9569 $x189 $x5124 $x669 $x9576 $x1005 $x4386)))))))))))
(assert
 (let (($x3868 (= cell_4_4 9)))
 (let (($x6414 (= cell_4_4 8)))
 (let (($x1127 (= cell_4_4 7)))
 (let (($x10021 (= cell_4_4 6)))
 (let (($x445 (= cell_4_4 5)))
 (let (($x4127 (= cell_4_4 4)))
 (let (($x2431 (= cell_4_4 3)))
 (let (($x10203 (= cell_4_4 2)))
 (let (($x2064 (= cell_4_4 1)))
 (or $x2064 $x10203 $x2431 $x4127 $x445 $x10021 $x1127 $x6414 $x3868)))))))))))
(assert
 (let (($x3447 (= cell_5_4 9)))
 (let (($x1788 (= cell_5_4 8)))
 (let (($x6965 (= cell_5_4 7)))
 (let (($x3567 (= cell_5_4 6)))
 (let (($x5964 (= cell_5_4 5)))
 (let (($x9434 (= cell_5_4 4)))
 (let (($x8643 (= cell_5_4 3)))
 (let (($x6926 (= cell_5_4 2)))
 (let (($x2885 (= cell_5_4 1)))
 (or $x2885 $x6926 $x8643 $x9434 $x5964 $x3567 $x6965 $x1788 $x3447)))))))))))
(assert
 (let (($x7029 (= cell_6_4 1)))
 (or $x7029 (= cell_6_4 2) (= cell_6_4 3) (= cell_6_4 4) (= cell_6_4 5) (= cell_6_4 6) (= cell_6_4 7) (= cell_6_4 8) (= cell_6_4 9))))
(assert
 (let (($x8805 (= cell_7_4 9)))
 (let (($x856 (= cell_7_4 8)))
 (let (($x9875 (= cell_7_4 7)))
 (let (($x4024 (= cell_7_4 6)))
 (let (($x7912 (= cell_7_4 5)))
 (let (($x4504 (= cell_7_4 4)))
 (let (($x9464 (= cell_7_4 3)))
 (let (($x2830 (= cell_7_4 2)))
 (let (($x3464 (= cell_7_4 1)))
 (or $x3464 $x2830 $x9464 $x4504 $x7912 $x4024 $x9875 $x856 $x8805)))))))))))
(assert
 (let (($x4286 (= cell_8_4 9)))
 (let (($x5791 (= cell_8_4 8)))
 (let (($x3203 (= cell_8_4 7)))
 (let (($x6017 (= cell_8_4 6)))
 (let (($x5955 (= cell_8_4 5)))
 (let (($x4616 (= cell_8_4 4)))
 (let (($x6213 (= cell_8_4 3)))
 (let (($x3034 (= cell_8_4 2)))
 (let (($x1576 (= cell_8_4 1)))
 (or $x1576 $x3034 $x6213 $x4616 $x5955 $x6017 $x3203 $x5791 $x4286)))))))))))
(assert
 (let (($x995 (= cell_9_4 1)))
 (or $x995 (= cell_9_4 2) (= cell_9_4 3) (= cell_9_4 4) (= cell_9_4 5) (= cell_9_4 6) (= cell_9_4 7) (= cell_9_4 8) (= cell_9_4 9))))
(assert
 (let (($x7017 (= cell_1_5 9)))
 (let (($x4334 (= cell_1_5 8)))
 (let (($x170 (= cell_1_5 7)))
 (let (($x4750 (= cell_1_5 6)))
 (let (($x10161 (= cell_1_5 5)))
 (let (($x1282 (= cell_1_5 4)))
 (let (($x5979 (= cell_1_5 3)))
 (let (($x7337 (= cell_1_5 2)))
 (let (($x9424 (= cell_1_5 1)))
 (or $x9424 $x7337 $x5979 $x1282 $x10161 $x4750 $x170 $x4334 $x7017)))))))))))
(assert
 (let (($x8349 (= cell_2_5 9)))
 (let (($x1305 (= cell_2_5 8)))
 (let (($x3687 (= cell_2_5 7)))
 (let (($x6205 (= cell_2_5 6)))
 (let (($x7400 (= cell_2_5 5)))
 (let (($x8484 (= cell_2_5 4)))
 (let (($x4290 (= cell_2_5 3)))
 (let (($x9783 (= cell_2_5 2)))
 (let (($x9956 (= cell_2_5 1)))
 (or $x9956 $x9783 $x4290 $x8484 $x7400 $x6205 $x3687 $x1305 $x8349)))))))))))
(assert
 (let (($x7707 (= cell_3_5 9)))
 (let (($x6034 (= cell_3_5 8)))
 (let (($x665 (= cell_3_5 7)))
 (let (($x2973 (= cell_3_5 6)))
 (let (($x5900 (= cell_3_5 5)))
 (let (($x2118 (= cell_3_5 4)))
 (let (($x3360 (= cell_3_5 3)))
 (let (($x3010 (= cell_3_5 2)))
 (let (($x2357 (= cell_3_5 1)))
 (or $x2357 $x3010 $x3360 $x2118 $x5900 $x2973 $x665 $x6034 $x7707)))))))))))
(assert
 (let (($x4096 (= cell_4_5 9)))
 (let (($x4470 (= cell_4_5 8)))
 (let (($x4130 (= cell_4_5 7)))
 (let (($x9748 (= cell_4_5 6)))
 (let (($x4014 (= cell_4_5 5)))
 (let (($x2174 (= cell_4_5 4)))
 (let (($x500 (= cell_4_5 3)))
 (let (($x9704 (= cell_4_5 2)))
 (let (($x8697 (= cell_4_5 1)))
 (or $x8697 $x9704 $x500 $x2174 $x4014 $x9748 $x4130 $x4470 $x4096)))))))))))
(assert
 (let (($x7742 (= cell_5_5 9)))
 (let (($x6040 (= cell_5_5 8)))
 (let (($x3636 (= cell_5_5 7)))
 (let (($x2621 (= cell_5_5 6)))
 (let (($x10073 (= cell_5_5 5)))
 (let (($x1205 (= cell_5_5 4)))
 (let (($x868 (= cell_5_5 3)))
 (let (($x5827 (= cell_5_5 2)))
 (let (($x6154 (= cell_5_5 1)))
 (or $x6154 $x5827 $x868 $x1205 $x10073 $x2621 $x3636 $x6040 $x7742)))))))))))
(assert
 (let (($x9323 (= cell_6_5 9)))
 (let (($x9992 (= cell_6_5 8)))
 (let (($x3087 (= cell_6_5 7)))
 (let (($x3800 (= cell_6_5 6)))
 (let (($x2467 (= cell_6_5 5)))
 (let (($x3595 (= cell_6_5 4)))
 (let (($x3241 (= cell_6_5 3)))
 (let (($x136 (= cell_6_5 2)))
 (let (($x5004 (= cell_6_5 1)))
 (or $x5004 $x136 $x3241 $x3595 $x2467 $x3800 $x3087 $x9992 $x9323)))))))))))
(assert
 (let (($x5321 (= cell_7_5 1)))
 (or $x5321 (= cell_7_5 2) (= cell_7_5 3) (= cell_7_5 4) (= cell_7_5 5) (= cell_7_5 6) (= cell_7_5 7) (= cell_7_5 8) (= cell_7_5 9))))
(assert
 (let (($x2647 (= cell_8_5 9)))
 (let (($x169 (= cell_8_5 8)))
 (let (($x5569 (= cell_8_5 7)))
 (let (($x243 (= cell_8_5 6)))
 (let (($x851 (= cell_8_5 5)))
 (let (($x9955 (= cell_8_5 4)))
 (let (($x232 (= cell_8_5 3)))
 (let (($x4360 (= cell_8_5 2)))
 (let (($x1984 (= cell_8_5 1)))
 (or $x1984 $x4360 $x232 $x9955 $x851 $x243 $x5569 $x169 $x2647)))))))))))
(assert
 (let (($x3131 (= cell_9_5 1)))
 (or $x3131 (= cell_9_5 2) (= cell_9_5 3) (= cell_9_5 4) (= cell_9_5 5) (= cell_9_5 6) (= cell_9_5 7) (= cell_9_5 8) (= cell_9_5 9))))
(assert
 (let (($x4938 (= cell_1_6 9)))
 (let (($x3099 (= cell_1_6 8)))
 (let (($x8404 (= cell_1_6 7)))
 (let (($x5998 (= cell_1_6 6)))
 (let (($x4371 (= cell_1_6 5)))
 (let (($x7153 (= cell_1_6 4)))
 (let (($x7287 (= cell_1_6 3)))
 (let (($x3911 (= cell_1_6 2)))
 (let (($x6883 (= cell_1_6 1)))
 (or $x6883 $x3911 $x7287 $x7153 $x4371 $x5998 $x8404 $x3099 $x4938)))))))))))
(assert
 (let (($x2867 (= cell_2_6 9)))
 (let (($x7161 (= cell_2_6 8)))
 (let (($x255 (= cell_2_6 7)))
 (let (($x630 (= cell_2_6 6)))
 (let (($x6039 (= cell_2_6 5)))
 (let (($x1538 (= cell_2_6 4)))
 (let (($x5254 (= cell_2_6 3)))
 (let (($x1234 (= cell_2_6 2)))
 (let (($x9865 (= cell_2_6 1)))
 (or $x9865 $x1234 $x5254 $x1538 $x6039 $x630 $x255 $x7161 $x2867)))))))))))
(assert
 (let (($x1036 (= cell_3_6 9)))
 (let (($x6379 (= cell_3_6 8)))
 (let (($x3265 (= cell_3_6 7)))
 (let (($x1542 (= cell_3_6 6)))
 (let (($x9368 (= cell_3_6 5)))
 (let (($x7618 (= cell_3_6 4)))
 (let (($x6958 (= cell_3_6 3)))
 (let (($x7297 (= cell_3_6 2)))
 (let (($x2735 (= cell_3_6 1)))
 (or $x2735 $x7297 $x6958 $x7618 $x9368 $x1542 $x3265 $x6379 $x1036)))))))))))
(assert
 (let (($x9452 (= cell_4_6 1)))
 (or $x9452 (= cell_4_6 2) (= cell_4_6 3) (= cell_4_6 4) (= cell_4_6 5) (= cell_4_6 6) (= cell_4_6 7) (= cell_4_6 8) (= cell_4_6 9))))
(assert
 (let (($x6236 (= cell_5_6 9)))
 (let (($x9941 (= cell_5_6 8)))
 (let (($x7967 (= cell_5_6 7)))
 (let (($x3695 (= cell_5_6 6)))
 (let (($x7916 (= cell_5_6 5)))
 (let (($x1548 (= cell_5_6 4)))
 (let (($x10220 (= cell_5_6 3)))
 (let (($x1521 (= cell_5_6 2)))
 (let (($x589 (= cell_5_6 1)))
 (or $x589 $x1521 $x10220 $x1548 $x7916 $x3695 $x7967 $x9941 $x6236)))))))))))
(assert
 (let (($x9528 (= cell_6_6 1)))
 (or $x9528 (= cell_6_6 2) (= cell_6_6 3) (= cell_6_6 4) (= cell_6_6 5) (= cell_6_6 6) (= cell_6_6 7) (= cell_6_6 8) (= cell_6_6 9))))
(assert
 (let (($x1213 (= cell_7_6 1)))
 (or $x1213 (= cell_7_6 2) (= cell_7_6 3) (= cell_7_6 4) (= cell_7_6 5) (= cell_7_6 6) (= cell_7_6 7) (= cell_7_6 8) (= cell_7_6 9))))
(assert
 (let (($x8134 (= cell_8_6 9)))
 (let (($x7757 (= cell_8_6 8)))
 (let (($x3180 (= cell_8_6 7)))
 (let (($x9455 (= cell_8_6 6)))
 (let (($x8280 (= cell_8_6 5)))
 (let (($x3039 (= cell_8_6 4)))
 (let (($x2235 (= cell_8_6 3)))
 (let (($x2526 (= cell_8_6 2)))
 (let (($x6715 (= cell_8_6 1)))
 (or $x6715 $x2526 $x2235 $x3039 $x8280 $x9455 $x3180 $x7757 $x8134)))))))))))
(assert
 (let (($x9694 (= cell_9_6 1)))
 (or $x9694 (= cell_9_6 2) (= cell_9_6 3) (= cell_9_6 4) (= cell_9_6 5) (= cell_9_6 6) (= cell_9_6 7) (= cell_9_6 8) (= cell_9_6 9))))
(assert
 (let (($x7266 (= cell_1_7 9)))
 (let (($x4991 (= cell_1_7 8)))
 (let (($x5510 (= cell_1_7 7)))
 (let (($x5044 (= cell_1_7 6)))
 (let (($x512 (= cell_1_7 5)))
 (let (($x4271 (= cell_1_7 4)))
 (let (($x4579 (= cell_1_7 3)))
 (let (($x8651 (= cell_1_7 2)))
 (let (($x2727 (= cell_1_7 1)))
 (or $x2727 $x8651 $x4579 $x4271 $x512 $x5044 $x5510 $x4991 $x7266)))))))))))
(assert
 (let (($x9155 (= cell_2_7 9)))
 (let (($x4771 (= cell_2_7 8)))
 (let (($x6451 (= cell_2_7 7)))
 (let (($x7665 (= cell_2_7 6)))
 (let (($x7229 (= cell_2_7 5)))
 (let (($x1460 (= cell_2_7 4)))
 (let (($x2255 (= cell_2_7 3)))
 (let (($x6605 (= cell_2_7 2)))
 (let (($x6876 (= cell_2_7 1)))
 (or $x6876 $x6605 $x2255 $x1460 $x7229 $x7665 $x6451 $x4771 $x9155)))))))))))
(assert
 (let (($x5822 (= cell_3_7 1)))
 (or $x5822 (= cell_3_7 2) (= cell_3_7 3) (= cell_3_7 4) (= cell_3_7 5) (= cell_3_7 6) (= cell_3_7 7) (= cell_3_7 8) (= cell_3_7 9))))
(assert
 (let (($x3987 (= cell_4_7 9)))
 (let (($x9611 (= cell_4_7 8)))
 (let (($x6061 (= cell_4_7 7)))
 (let (($x862 (= cell_4_7 6)))
 (let (($x104 (= cell_4_7 5)))
 (let (($x8660 (= cell_4_7 4)))
 (let (($x7859 (= cell_4_7 3)))
 (let (($x7269 (= cell_4_7 2)))
 (let (($x3776 (= cell_4_7 1)))
 (or $x3776 $x7269 $x7859 $x8660 $x104 $x862 $x6061 $x9611 $x3987)))))))))))
(assert
 (let (($x291 (= cell_5_7 9)))
 (let (($x8217 (= cell_5_7 8)))
 (let (($x8642 (= cell_5_7 7)))
 (let (($x1609 (= cell_5_7 6)))
 (let (($x1825 (= cell_5_7 5)))
 (let (($x661 (= cell_5_7 4)))
 (let (($x8469 (= cell_5_7 3)))
 (let (($x304 (= cell_5_7 2)))
 (let (($x4401 (= cell_5_7 1)))
 (or $x4401 $x304 $x8469 $x661 $x1825 $x1609 $x8642 $x8217 $x291)))))))))))
(assert
 (let (($x8375 (= cell_6_7 1)))
 (or $x8375 (= cell_6_7 2) (= cell_6_7 3) (= cell_6_7 4) (= cell_6_7 5) (= cell_6_7 6) (= cell_6_7 7) (= cell_6_7 8) (= cell_6_7 9))))
(assert
 (let (($x9957 (= cell_7_7 9)))
 (let (($x8551 (= cell_7_7 8)))
 (let (($x8013 (= cell_7_7 7)))
 (let (($x2349 (= cell_7_7 6)))
 (let (($x4681 (= cell_7_7 5)))
 (let (($x8437 (= cell_7_7 4)))
 (let (($x8773 (= cell_7_7 3)))
 (let (($x1872 (= cell_7_7 2)))
 (let (($x8156 (= cell_7_7 1)))
 (or $x8156 $x1872 $x8773 $x8437 $x4681 $x2349 $x8013 $x8551 $x9957)))))))))))
(assert
 (let (($x7220 (= cell_8_7 9)))
 (let (($x8206 (= cell_8_7 8)))
 (let (($x7961 (= cell_8_7 7)))
 (let (($x6483 (= cell_8_7 6)))
 (let (($x6683 (= cell_8_7 5)))
 (let (($x3177 (= cell_8_7 4)))
 (let (($x8324 (= cell_8_7 3)))
 (let (($x1873 (= cell_8_7 2)))
 (let (($x1976 (= cell_8_7 1)))
 (or $x1976 $x1873 $x8324 $x3177 $x6683 $x6483 $x7961 $x8206 $x7220)))))))))))
(assert
 (let (($x5568 (= cell_9_7 1)))
 (or $x5568 (= cell_9_7 2) (= cell_9_7 3) (= cell_9_7 4) (= cell_9_7 5) (= cell_9_7 6) (= cell_9_7 7) (= cell_9_7 8) (= cell_9_7 9))))
(assert
 (let (($x2660 (= cell_1_8 9)))
 (let (($x1481 (= cell_1_8 8)))
 (let (($x5007 (= cell_1_8 7)))
 (let (($x9298 (= cell_1_8 6)))
 (let (($x8808 (= cell_1_8 5)))
 (let (($x8227 (= cell_1_8 4)))
 (let (($x1101 (= cell_1_8 3)))
 (let (($x7756 (= cell_1_8 2)))
 (let (($x3769 (= cell_1_8 1)))
 (or $x3769 $x7756 $x1101 $x8227 $x8808 $x9298 $x5007 $x1481 $x2660)))))))))))
(assert
 (let (($x9586 (= cell_2_8 9)))
 (let (($x3403 (= cell_2_8 8)))
 (let (($x4236 (= cell_2_8 7)))
 (let (($x123 (= cell_2_8 6)))
 (let (($x2796 (= cell_2_8 5)))
 (let (($x8588 (= cell_2_8 4)))
 (let (($x636 (= cell_2_8 3)))
 (let (($x9282 (= cell_2_8 2)))
 (let (($x2719 (= cell_2_8 1)))
 (or $x2719 $x9282 $x636 $x8588 $x2796 $x123 $x4236 $x3403 $x9586)))))))))))
(assert
 (let (($x8207 (= cell_3_8 9)))
 (let (($x10173 (= cell_3_8 8)))
 (let (($x1921 (= cell_3_8 7)))
 (let (($x9052 (= cell_3_8 6)))
 (let (($x2590 (= cell_3_8 5)))
 (let (($x8849 (= cell_3_8 4)))
 (let (($x8221 (= cell_3_8 3)))
 (let (($x7336 (= cell_3_8 2)))
 (let (($x869 (= cell_3_8 1)))
 (or $x869 $x7336 $x8221 $x8849 $x2590 $x9052 $x1921 $x10173 $x8207)))))))))))
(assert
 (let (($x3103 (= cell_4_8 9)))
 (let (($x6155 (= cell_4_8 8)))
 (let (($x1628 (= cell_4_8 7)))
 (let (($x8956 (= cell_4_8 6)))
 (let (($x1383 (= cell_4_8 5)))
 (let (($x1249 (= cell_4_8 4)))
 (let (($x3331 (= cell_4_8 3)))
 (let (($x8218 (= cell_4_8 2)))
 (let (($x3399 (= cell_4_8 1)))
 (or $x3399 $x8218 $x3331 $x1249 $x1383 $x8956 $x1628 $x6155 $x3103)))))))))))
(assert
 (let (($x9025 (= cell_5_8 9)))
 (let (($x2117 (= cell_5_8 8)))
 (let (($x4240 (= cell_5_8 7)))
 (let (($x818 (= cell_5_8 6)))
 (let (($x7888 (= cell_5_8 5)))
 (let (($x3461 (= cell_5_8 4)))
 (let (($x9544 (= cell_5_8 3)))
 (let (($x5031 (= cell_5_8 2)))
 (let (($x5836 (= cell_5_8 1)))
 (or $x5836 $x5031 $x9544 $x3461 $x7888 $x818 $x4240 $x2117 $x9025)))))))))))
(assert
 (let (($x1970 (= cell_6_8 9)))
 (let (($x1357 (= cell_6_8 8)))
 (let (($x8906 (= cell_6_8 7)))
 (let (($x1478 (= cell_6_8 6)))
 (let (($x6552 (= cell_6_8 5)))
 (let (($x8154 (= cell_6_8 4)))
 (let (($x406 (= cell_6_8 3)))
 (let (($x9872 (= cell_6_8 2)))
 (let (($x1022 (= cell_6_8 1)))
 (or $x1022 $x9872 $x406 $x8154 $x6552 $x1478 $x8906 $x1357 $x1970)))))))))))
(assert
 (let (($x516 (= cell_7_8 9)))
 (let (($x3072 (= cell_7_8 8)))
 (let (($x9020 (= cell_7_8 7)))
 (let (($x384 (= cell_7_8 6)))
 (let (($x8920 (= cell_7_8 5)))
 (let (($x8107 (= cell_7_8 4)))
 (let (($x1373 (= cell_7_8 3)))
 (let (($x8925 (= cell_7_8 2)))
 (let (($x7588 (= cell_7_8 1)))
 (or $x7588 $x8925 $x1373 $x8107 $x8920 $x384 $x9020 $x3072 $x516)))))))))))
(assert
 (let (($x7919 (= cell_8_8 1)))
 (or $x7919 (= cell_8_8 2) (= cell_8_8 3) (= cell_8_8 4) (= cell_8_8 5) (= cell_8_8 6) (= cell_8_8 7) (= cell_8_8 8) (= cell_8_8 9))))
(assert
 (let (($x576 (= cell_9_8 1)))
 (or $x576 (= cell_9_8 2) (= cell_9_8 3) (= cell_9_8 4) (= cell_9_8 5) (= cell_9_8 6) (= cell_9_8 7) (= cell_9_8 8) (= cell_9_8 9))))
(assert
 (let (($x3219 (= cell_1_9 9)))
 (let (($x3193 (= cell_1_9 8)))
 (let (($x9542 (= cell_1_9 7)))
 (let (($x5379 (= cell_1_9 6)))
 (let (($x4409 (= cell_1_9 5)))
 (let (($x7977 (= cell_1_9 4)))
 (let (($x3188 (= cell_1_9 3)))
 (let (($x7519 (= cell_1_9 2)))
 (let (($x5212 (= cell_1_9 1)))
 (or $x5212 $x7519 $x3188 $x7977 $x4409 $x5379 $x9542 $x3193 $x3219)))))))))))
(assert
 (let (($x6024 (= cell_2_9 9)))
 (let (($x6403 (= cell_2_9 8)))
 (let (($x4831 (= cell_2_9 7)))
 (let (($x1513 (= cell_2_9 6)))
 (let (($x2766 (= cell_2_9 5)))
 (let (($x2541 (= cell_2_9 4)))
 (let (($x5669 (= cell_2_9 3)))
 (let (($x2454 (= cell_2_9 2)))
 (let (($x6227 (= cell_2_9 1)))
 (or $x6227 $x2454 $x5669 $x2541 $x2766 $x1513 $x4831 $x6403 $x6024)))))))))))
(assert
 (let (($x312 (= cell_3_9 9)))
 (let (($x9105 (= cell_3_9 8)))
 (let (($x9929 (= cell_3_9 7)))
 (let (($x4744 (= cell_3_9 6)))
 (let (($x8105 (= cell_3_9 5)))
 (let (($x4833 (= cell_3_9 4)))
 (let (($x5355 (= cell_3_9 3)))
 (let (($x5723 (= cell_3_9 2)))
 (let (($x2656 (= cell_3_9 1)))
 (or $x2656 $x5723 $x5355 $x4833 $x8105 $x4744 $x9929 $x9105 $x312)))))))))))
(assert
 (let (($x9230 (= cell_4_9 9)))
 (let (($x9869 (= cell_4_9 8)))
 (let (($x303 (= cell_4_9 7)))
 (let (($x3224 (= cell_4_9 6)))
 (let (($x9665 (= cell_4_9 5)))
 (let (($x5323 (= cell_4_9 4)))
 (let (($x5083 (= cell_4_9 3)))
 (let (($x802 (= cell_4_9 2)))
 (let (($x6002 (= cell_4_9 1)))
 (or $x6002 $x802 $x5083 $x5323 $x9665 $x3224 $x303 $x9869 $x9230)))))))))))
(assert
 (let (($x2787 (= cell_5_9 1)))
 (or $x2787 (= cell_5_9 2) (= cell_5_9 3) (= cell_5_9 4) (= cell_5_9 5) (= cell_5_9 6) (= cell_5_9 7) (= cell_5_9 8) (= cell_5_9 9))))
(assert
 (let (($x5329 (= cell_6_9 1)))
 (or $x5329 (= cell_6_9 2) (= cell_6_9 3) (= cell_6_9 4) (= cell_6_9 5) (= cell_6_9 6) (= cell_6_9 7) (= cell_6_9 8) (= cell_6_9 9))))
(assert
 (let (($x7218 (= cell_7_9 9)))
 (let (($x7777 (= cell_7_9 8)))
 (let (($x8692 (= cell_7_9 7)))
 (let (($x8480 (= cell_7_9 6)))
 (let (($x5750 (= cell_7_9 5)))
 (let (($x7440 (= cell_7_9 4)))
 (let (($x9752 (= cell_7_9 3)))
 (let (($x4841 (= cell_7_9 2)))
 (let (($x3841 (= cell_7_9 1)))
 (or $x3841 $x4841 $x9752 $x7440 $x5750 $x8480 $x8692 $x7777 $x7218)))))))))))
(assert
 (let (($x1610 (= cell_8_9 1)))
 (or $x1610 (= cell_8_9 2) (= cell_8_9 3) (= cell_8_9 4) (= cell_8_9 5) (= cell_8_9 6) (= cell_8_9 7) (= cell_8_9 8) (= cell_8_9 9))))
(assert
 (let (($x931 (= cell_9_9 1)))
 (or $x931 (= cell_9_9 2) (= cell_9_9 3) (= cell_9_9 4) (= cell_9_9 5) (= cell_9_9 6) (= cell_9_9 7) (= cell_9_9 8) (= cell_9_9 9))))
(assert
 (and (distinct cell_1_1 cell_1_2 cell_1_3 cell_1_4 cell_1_5 cell_1_6 cell_1_7 cell_1_8 cell_1_9) true))
(assert
 (and (distinct cell_2_1 cell_2_2 cell_2_3 cell_2_4 cell_2_5 cell_2_6 cell_2_7 cell_2_8 cell_2_9) true))
(assert
 (and (distinct cell_3_1 cell_3_2 cell_3_3 cell_3_4 cell_3_5 cell_3_6 cell_3_7 cell_3_8 cell_3_9) true))
(assert
 (and (distinct cell_4_1 cell_4_2 cell_4_3 cell_4_4 cell_4_5 cell_4_6 cell_4_7 cell_4_8 cell_4_9) true))
(assert
 (and (distinct cell_5_1 cell_5_2 cell_5_3 cell_5_4 cell_5_5 cell_5_6 cell_5_7 cell_5_8 cell_5_9) true))
(assert
 (and (distinct cell_6_1 cell_6_2 cell_6_3 cell_6_4 cell_6_5 cell_6_6 cell_6_7 cell_6_8 cell_6_9) true))
(assert
 (and (distinct cell_7_1 cell_7_2 cell_7_3 cell_7_4 cell_7_5 cell_7_6 cell_7_7 cell_7_8 cell_7_9) true))
(assert
 (and (distinct cell_8_1 cell_8_2 cell_8_3 cell_8_4 cell_8_5 cell_8_6 cell_8_7 cell_8_8 cell_8_9) true))
(assert
 (and (distinct cell_9_1 cell_9_2 cell_9_3 cell_9_4 cell_9_5 cell_9_6 cell_9_7 cell_9_8 cell_9_9) true))
(assert
 (and (distinct cell_1_1 cell_2_1 cell_3_1 cell_4_1 cell_5_1 cell_6_1 cell_7_1 cell_8_1 cell_9_1) true))
(assert
 (and (distinct cell_1_2 cell_2_2 cell_3_2 cell_4_2 cell_5_2 cell_6_2 cell_7_2 cell_8_2 cell_9_2) true))
(assert
 (and (distinct cell_1_3 cell_2_3 cell_3_3 cell_4_3 cell_5_3 cell_6_3 cell_7_3 cell_8_3 cell_9_3) true))
(assert
 (and (distinct cell_1_4 cell_2_4 cell_3_4 cell_4_4 cell_5_4 cell_6_4 cell_7_4 cell_8_4 cell_9_4) true))
(assert
 (and (distinct cell_1_5 cell_2_5 cell_3_5 cell_4_5 cell_5_5 cell_6_5 cell_7_5 cell_8_5 cell_9_5) true))
(assert
 (and (distinct cell_1_6 cell_2_6 cell_3_6 cell_4_6 cell_5_6 cell_6_6 cell_7_6 cell_8_6 cell_9_6) true))
(assert
 (and (distinct cell_1_7 cell_2_7 cell_3_7 cell_4_7 cell_5_7 cell_6_7 cell_7_7 cell_8_7 cell_9_7) true))
(assert
 (and (distinct cell_1_8 cell_2_8 cell_3_8 cell_4_8 cell_5_8 cell_6_8 cell_7_8 cell_8_8 cell_9_8) true))
(assert
 (and (distinct cell_1_9 cell_2_9 cell_3_9 cell_4_9 cell_5_9 cell_6_9 cell_7_9 cell_8_9 cell_9_9) true))
(assert
 (and (distinct cell_1_1 cell_1_2 cell_1_3 cell_2_1 cell_2_2 cell_2_3 cell_3_1 cell_3_2 cell_3_3) true))
(assert
 (and (distinct cell_1_4 cell_1_5 cell_1_6 cell_2_4 cell_2_5 cell_2_6 cell_3_4 cell_3_5 cell_3_6) true))
(assert
 (and (distinct cell_1_7 cell_1_8 cell_1_9 cell_2_7 cell_2_8 cell_2_9 cell_3_7 cell_3_8 cell_3_9) true))
(assert
 (and (distinct cell_4_1 cell_4_2 cell_4_3 cell_5_1 cell_5_2 cell_5_3 cell_6_1 cell_6_2 cell_6_3) true))
(assert
 (and (distinct cell_4_4 cell_4_5 cell_4_6 cell_5_4 cell_5_5 cell_5_6 cell_6_4 cell_6_5 cell_6_6) true))
(assert
 (and (distinct cell_4_7 cell_4_8 cell_4_9 cell_5_7 cell_5_8 cell_5_9 cell_6_7 cell_6_8 cell_6_9) true))
(assert
 (and (distinct cell_7_1 cell_7_2 cell_7_3 cell_8_1 cell_8_2 cell_8_3 cell_9_1 cell_9_2 cell_9_3) true))
(assert
 (and (distinct cell_7_4 cell_7_5 cell_7_6 cell_8_4 cell_8_5 cell_8_6 cell_9_4 cell_9_5 cell_9_6) true))
(assert
 (and (distinct cell_7_7 cell_7_8 cell_7_9 cell_8_7 cell_8_8 cell_8_9 cell_9_7 cell_9_8 cell_9_9) true))
(assert
 (let (($x3847 (and (distinct cell_5_9 cell_6_8 cell_7_7 cell_8_6) true)))
 (let (($x9236 (and (distinct cell_2_9 cell_3_8 cell_4_7 cell_5_6 cell_6_5 cell_7_4 cell_8_3 cell_9_2) true)))
 (let (($x6330 (and (distinct cell_1_8 cell_2_7 cell_3_6 cell_4_5 cell_5_4 cell_6_3 cell_7_2 cell_8_1) true)))
 (let (($x5278 (and (distinct cell_1_5 cell_2_4 cell_3_3 cell_4_2) true)))
 (let (($x5604 (and (distinct cell_5_1 cell_6_2 cell_7_3 cell_8_4) true)))
 (let (($x4485 (and (distinct cell_2_1 cell_3_2 cell_4_3 cell_5_4 cell_6_5 cell_7_6 cell_8_7 cell_9_8) true)))
 (let (($x6303 (and (distinct cell_1_2 cell_2_3 cell_3_4 cell_4_5 cell_5_6 cell_6_7 cell_7_8 cell_8_9) true)))
 (let (($x3418 (and (distinct cell_1_5 cell_2_6 cell_3_7 cell_4_8) true)))
 (and $x3418 $x6303 $x4485 $x5604 $x5278 $x6330 $x9236 $x3847))))))))))
(assert
 (= cell_1_3 2))
(check-sat)
